n_res = 4;
rcap = [23, 25, 61, 15];
rtype = [1, 1, 2, 2];
n_tasks = 16;
modes = [ {1}, {2}, {3}, {4}, {5}, {6}, {7}, {8}, {9}, {10}, {11}, {12}, {13}, {14}, {15}, {16} ];
succ = [ {5}, {4, 7, 10}, {4, 6, 7}, {5}, {8, 9, 14}, {11, 14}, {14, 15, 16}, {11, 12, 16}, {12, 13, 16}, {12, 13}, {13}, {15}, {15}, {}, {}, {} ];
n_opt = 16;
dur = [8, 5, 2, 8, 8, 6, 3, 10, 1, 9, 3, 10, 8, 2, 1, 2];
rreq = [|  3,  5,  4,  3,  7,  1,  2,  8, 10,  5,  4,  6,  8,  5,  4,  6
        |  3,  8,  8,  8,  3,  5,  3,  5,  5,  6,  3,  8,  5,  4,  2,  8
        |  2,  8,  8,  4,  9,  0,  0,  7,  0,  9,  0,  5,  0,  5,  2,  2
        |  0,  0,  0,  0,  0,  3,  2,  0,  4,  0,  4,  0,  2,  0,  0,  0 |];
